benchmarks_vrp/CMT12/no_cluster/CMT12_2.vrp
NAME: CMT12_2
TYPE: CVRP
COMMENT: 819.56 - Cluster Nr.2
DIMENSION: 18
CAPACITY: 200
EDGE_WEIGHT_TYPE: EUC_2D
NODE_COORD_TYPE: TWOD_COORDS
NODE_COORD_SECTION: 
3 32 30
10 26 32
12 30 35
2 30 30
6 28 30
9 30 32
7 45 35
4 35 30
18 33 35
13 40 50
14 28 35
17 45 30
16 25 30
1 25 35
5 35 32
8 47 35
11 48 30
15 33 32
DEPOT_SECTION: 
13
-1
DEMAND_SECTION: 
18 10
3 10
1 10
14 10
2 10
17 10
16 10
6 10
4 10
13 0
8 10
9 30
12 10
11 10
5 10
10 10
7 10
15 20
EOF
