benchmarks_vrp/CMT12/no_cluster/CMT12_2.tour
NAME: CMT12_2 solution
TYPE: TOUR
TOUR_SECTION:
13 7 8 11 17 4 5 15 3 2 9 6 16 10 1 14 12 18 -1
-1
EOF